16577
1 1 1 1 1 1 1 0 0 1 0 0 0 0 1 0 1 0 0 1 1 0 0 0 0 0 0 1 1 0 
20 0 20 2 20 5 2 9 14 0 9 16 28 20 3 14 14 0 5 0 2 0 5 3 5 20 19 5 5 9 5 5 6 27 20 20 5 9 0 14 0 14 9 28 5 14 0 20 27 28 5 14 14 5 20 20 2 27 0 14 0 5 20 27 0 0 9 0 5 9 20 6 5 0 9 20 9 20 14 9 20 0 20 0 19 0 2 4 20 5 2 9 0 0 0 5 2 2 27 16 16 0 14 0 2 5 0 0 14 28 14 1 2 0 0 27 5 9 5 5 5 28 5 20 16 0 5 9 0 27 0 27 5 5 28 14 4 5 20 0 0 28 20 14 20 27 0 5 2 5 
